datasets/5l3i.nl
g3 3 1 0	# problem 5l3i
 18 15 1 0 15	# vars, constraints, objectives, ranges, eqns
 0 1	# nonlinear constraints, objectives
 0 0	# network constraints: nonlinear, linear
 0 9 0	# nonlinear vars in constraints, objectives, both
 0 0 0 1	# linear network variables; functions; arith, flags
 0 9 0 0 9	# discrete variables: binary, integer, nonlinear (b,c,o)
 36 9	# nonzeros in Jacobian, gradients
 0 0	# max name lengths: constraints, variables
 0 0 0 0 0	# common exprs: b,c,o,c1,o1
b
2 0
2 0
2 0
2 0
2 0
2 0
2 0
2 0
2 0
0 0 100
0 0 100
0 0 100
0 0 100
0 0 100
0 0 100
0 0 100
0 0 100
0 0 100
r
4 400
4 400
4 400
4 -170
4 -130
4 -130
4 -200
4 -150
4 -150
4 -130
4 -220
4 -220
4 100
4 100
4 100
C0
n0
C1
n0
C2
n0
C3
n0
C4
n0
C5
n0
C6
n0
C7
n0
C8
n0
C9
n0
C10
n0
C11
n0
C12
n0
C13
n0
C14
n0
O0 0
o54
10
o2
n10000
o5
o16
o3
v0
n-170
n2
o2
n10000
o5
o16
o3
v1
n-130
n2
o2
n10000
o5
o16
o3
v2
n-130
n2
o2
n10000
o5
o16
o3
v3
n-200
n2
o2
n10000
o5
o16
o3
v4
n-150
n2
o2
n10000
o5
o16
o3
v5
n-150
n2
o2
n10000
o5
o16
o3
v6
n-130
n2
o2
n10000
o5
o16
o3
v7
n-220
n2
o2
n10000
o5
o16
o3
v8
n-220
n2
n1117200
k17
2
4
6
8
10
12
14
16
18
20
22
24
26
28
30
32
34
J0 3
0 1
3 1
6 1
J1 3
1 1
4 1
7 1
J2 3
2 1
5 1
8 1
J3 2
0 -1
9 -1
J4 2
1 -1
10 -1
J5 2
2 -1
11 -1
J6 2
3 -1
12 -1
J7 2
4 -1
13 -1
J8 2
5 -1
14 -1
J9 2
6 -1
15 -1
J10 2
7 -1
16 -1
J11 2
8 -1
17 -1
J12 3
9 1
12 1
15 1
J13 3
10 1
13 1
16 1
J14 3
11 1
14 1
17 1
G0 9
0 604
1 604
2 604
3 230
4 230
5 230
6 584
7 584
8 584
