datasets/5l3i.sol
 
couenne: Optimal

Options
3
3
1
0
15
0
18
18
116
52
52
200
150
150
84
198
198
54
78
78
0
0
0
46
22
22
objno 0 3
